# 30748
param k := 6;
param n := 60;
param s := 1;
set E :=  (0,24) (1,49) (1,53) (2,36) (3,6) (4,19) (4,38) (5,14) (6,8) (6,29) (7,45) (8,13) (9,37) (9,45) (9,54) (10,26) (10,36) (11,48) (11,50) (12,27) (12,28) (13,20) (13,46) (14,17) (14,22) (14,49) (14,55) (15,19) (15,24) (15,32) (15,51) (15,52) (16,18) (16,35) (18,33) (18,39) (21,31) (21,51) (23,47) (25,41) (25,59) (26,41) (26,57) (27,50) (29,53) (29,58) (30,34) (30,50) (32,43) (32,58) (34,39) (34,40) (34,42) (41,56) (42,56) (44,57) (45,57) (47,56) (47,58);